p cnf 150 330
53 -65 130 0
8 -147 -116 0
118 -67 -144 0
-5 -28 94 0
-12 139 -19 0
-71 -57 82 0
83 -29 -27 0
95 -77 81 0
8 -140 -86 0
12 -81 -76 0
-78 29 -65 0
-67 -5 -129 0
-101 134 120 0
122 119 -138 0
71 -130 -134 0
-4 -135 20 0
-148 135 42 0
-54 -81 117 0
-1 -3 35 0
47 -75 139 0
55 -145 144 0
121 -54 139 0
-5 109 -73 0
-122 100 19 0
-8 -68 -107 0
-144 35 -49 0
-74 -98 49 0
2 92 -30 0
-8 -34 136 0
-101 137 58 0
112 -103 50 0
-126 -112 138 0
115 -53 52 0
-5 -15 117 0
88 -52 -23 0
-19 83 -1 0
-41 47 -96 0
70 150 54 0
-17 120 -37 0
-58 12 -10 0
75 -148 58 0
-19 -133 -26 0
-29 -77 -19 0
-146 47 27 0
-4 -104 -41 0
104 -25 -78 0
149 -69 61 0
78 -72 76 0
67 25 -45 0
-90 -144 89 0
82 92 146 0
77 97 -146 0
-47 38 -130 0
-110 118 -40 0
51 -99 -16 0
-47 58 -139 0
-25 -22 109 0
-106 -123 95 0
-36 -50 89 0
50 -6 -54 0
104 -57 -42 0
-131 -11 -65 0
15 4 -49 0
60 -127 128 0
25 53 -64 0
121 25 137 0
-148 -96 121 0
95 124 -112 0
-64 113 112 0
139 40 55 0
-134 -38 -148 0
-90 -64 84 0
-110 45 -95 0
85 117 11 0
117 132 108 0
-17 -53 27 0
140 128 -77 0
-66 45 95 0
63 137 88 0
-111 -133 12 0
-86 -21 126 0
-124 126 73 0
28 -90 -112 0
-97 28 -144 0
-142 -141 -122 0
-122 133 38 0
-128 84 102 0
-65 25 -103 0
-38 114 -12 0
-91 -126 -4 0
-115 64 38 0
31 29 149 0
-15 92 40 0
123 150 142 0
-89 111 51 0
-34 -74 -96 0
-60 -149 -118 0
-68 9 -137 0
-46 -97 36 0
2 134 70 0
-76 -82 -145 0
-52 139 -59 0
85 -150 -19 0
138 97 32 0
-63 -88 51 0
123 -3 -7 0
57 123 -2 0
-141 -104 -20 0
96 -63 -147 0
-96 84 -147 0
116 27 6 0
-77 -111 -39 0
95 130 148 0
115 -40 -132 0
62 -16 99 0
133 -37 44 0
83 -77 -78 0
-18 -75 -54 0
-62 133 -55 0
109 -15 -144 0
-13 103 -61 0
-17 87 -136 0
60 89 -24 0
-148 -114 -49 0
-134 -108 -127 0
-76 -137 78 0
41 72 -146 0
120 -79 93 0
98 -51 131 0
-61 -108 -6 0
-43 -121 35 0
37 136 132 0
14 -79 -113 0
20 -88 84 0
60 11 -2 0
-146 -131 11 0
95 -41 121 0
92 16 -110 0
-25 -117 92 0
-108 -118 62 0
22 -85 130 0
-143 17 -137 0
-52 83 110 0
142 39 99 0
116 8 -133 0
15 42 -89 0
61 55 46 0
44 -25 -26 0
6 -115 75 0
68 2 49 0
-78 -50 141 0
83 143 139 0
69 -36 60 0
-94 81 -132 0
-87 -83 79 0
-62 -55 106 0
-4 106 -146 0
-23 121 -128 0
81 -147 -55 0
15 -94 -89 0
113 83 -2 0
-74 -63 73 0
18 -73 -6 0
-14 -79 -87 0
-143 -31 30 0
119 -80 -123 0
-36 48 -117 0
86 28 -21 0
139 -10 -58 0
107 -147 -120 0
115 84 -12 0
77 14 133 0
42 -86 -132 0
-102 98 11 0
41 -123 43 0
111 -61 73 0
75 44 79 0
-21 115 41 0
-30 117 -132 0
-118 117 3 0
109 61 49 0
82 50 -111 0
-35 51 -81 0
33 107 -126 0
8 -125 28 0
55 127 43 0
25 74 -86 0
-46 44 -113 0
7 110 -101 0
16 -3 67 0
16 -2 -19 0
43 113 -88 0
-129 43 79 0
43 49 -15 0
96 85 68 0
-76 149 -144 0
-64 -145 -116 0
134 -107 111 0
-78 -29 -149 0
52 -60 130 0
-20 -79 136 0
22 -14 121 0
57 -41 67 0
66 70 -109 0
41 31 3 0
-72 92 -18 0
138 -50 147 0
47 -61 -52 0
13 130 -37 0
141 -107 -14 0
-63 116 -125 0
82 100 12 0
-4 8 -122 0
30 -76 35 0
124 13 72 0
37 12 -139 0
3 19 -127 0
55 -23 129 0
49 -53 -58 0
-20 -148 -125 0
-39 -123 -44 0
147 -73 -34 0
20 -108 45 0
114 -67 61 0
33 -120 -114 0
104 50 -70 0
136 -106 -28 0
-44 86 54 0
15 3 -100 0
-75 -6 -94 0
-73 -106 134 0
-89 -78 -80 0
7 -20 -53 0
147 -111 -47 0
28 -126 18 0
-65 -76 53 0
-148 -88 132 0
-81 -94 116 0
-7 126 -12 0
60 63 -80 0
-127 -111 -120 0
134 31 106 0
-5 130 -34 0
-1 8 25 0
37 91 62 0
94 11 48 0
-14 -137 4 0
-20 66 -100 0
-149 8 54 0
-34 79 33 0
-42 35 122 0
-91 122 -126 0
148 46 -73 0
-5 99 -113 0
-2 42 -54 0
-19 98 -76 0
125 -46 58 0
-29 -46 -8 0
21 98 22 0
22 -2 3 0
43 47 143 0
-67 -20 -35 0
95 75 -79 0
-64 81 -3 0
80 -94 -63 0
85 -146 125 0
111 71 54 0
-79 64 84 0
-106 -20 122 0
108 -28 131 0
-61 119 82 0
-68 52 -142 0
-4 -69 -63 0
-113 74 -121 0
-100 -149 -117 0
133 -59 115 0
-119 -124 137 0
79 -13 -69 0
23 -94 -97 0
89 15 33 0
74 86 89 0
117 -21 39 0
126 2 83 0
10 -59 83 0
-33 -48 -5 0
-51 74 85 0
144 -2 -14 0
46 -114 81 0
-13 134 -18 0
133 -11 -126 0
79 -76 99 0
34 -64 -113 0
104 86 -43 0
122 -42 -11 0
126 12 129 0
20 102 149 0
-131 83 41 0
63 113 -10 0
-140 -48 -32 0
-129 -62 121 0
x -2 -4 5 6 8 9 -11 12 -14 -15 -16 18 21 -24 -28 30 -33 34 -36 -37 -38 39 -42 -43 -44 -45 46 -47 49 51 -53 -54 56 -58 -61 62 65 67 72 -73 74 -75 -80 -81 85 89 -90 -94 -95 97 101 102 104 -106 -109 -111 -113 116 118 120 121 125 -126 127 129 -132 -134 136 137 138 140 -142 -145 -147 148 0
x 3 6 -7 9 -10 -12 14 15 17 -22 24 -25 -27 29 31 -32 -33 -35 -38 42 43 -44 46 47 -48 51 -56 -58 63 -65 66 -70 -71 -73 76 -79 -80 81 -82 -84 86 -89 90 -91 93 -95 -97 -100 -101 -102 -103 105 -110 111 114 115 -116 117 121 123 125 -126 134 135 137 -140 141 -142 145 147 -148 149 150 0
x -5 -7 -8 9 -10 14 -15 -18 22 -25 -27 30 33 38 -39 -40 -42 46 -47 48 50 -51 54 56 -57 -58 59 -60 -61 62 63 66 68 -69 74 75 77 -83 84 -85 86 -87 -88 89 91 92 94 -95 96 97 103 104 105 107 -111 -112 -114 115 117 -118 121 123 124 125 126 127 129 -130 -132 -135 -136 137 -138 144 -146 147 148 0
x 1 -4 6 7 -8 12 14 -15 -18 19 -21 22 24 -26 -28 30 31 -34 36 -37 -40 42 45 -47 50 51 52 -54 -55 -57 59 60 61 62 -65 66 -69 70 -71 -72 -74 -81 -82 -83 84 85 -87 90 -92 -93 95 -98 -99 -100 -103 104 106 109 -111 112 -113 -117 120 -122 -123 125 127 128 131 132 134 140 -141 145 -146 -147 148 -149 -150 0
x -5 8 -9 -10 11 -12 13 -15 -17 -22 23 26 -27 28 35 36 -39 -40 -41 -43 -45 48 -49 -50 51 -52 53 -55 -57 59 -60 -61 64 -65 66 68 -69 71 74 75 -76 77 -78 82 -84 -85 -86 90 -92 93 97 -100 -106 -107 -110 -111 -112 -117 -119 -121 123 -124 125 126 127 -130 -132 -134 -135 136 -140 141 143 144 147 -148 -149 0
x -1 2 -3 -5 -6 8 9 11 -14 15 16 -17 19 -20 -22 25 -26 -29 -32 33 -39 -43 44 -45 46 49 -50 -51 -53 57 -58 62 -63 -64 65 -67 -70 -74 76 77 -83 84 -85 87 -91 -93 96 97 98 -100 101 104 108 -110 -113 115 118 119 122 -123 -124 -125 127 128 -129 130 131 -133 -136 138 -143 -144 146 147 -150 0
x 1 3 4 -5 -6 7 8 9 -10 -11 14 16 -20 -21 22 23 -24 -27 -28 30 -32 34 35 38 -42 45 -47 -50 51 -55 -56 57 61 -64 65 66 67 68 69 81 -84 -87 89 -92 93 -96 97 98 101 105 -106 -107 -111 -112 114 116 -119 125 128 129 134 136 -137 141 -142 -143 -149 150 0
x -3 -5 -6 -10 -13 14 -16 17 18 -19 -27 28 31 -35 37 42 43 44 45 46 55 -56 57 -62 -63 -64 65 67 68 69 70 71 -72 73 -74 -75 -76 -78 -81 -82 -85 86 -88 89 -92 96 106 109 110 111 112 116 -117 -118 -119 121 122 125 130 -131 133 -135 136 -138 -139 -141 -142 143 -144 -146 147 0
x 1 2 4 6 8 9 11 -17 -20 22 -25 26 -27 -28 -31 -37 41 45 46 47 48 -49 50 -54 -55 -56 -57 58 -62 -65 -67 -68 -70 -72 73 -74 75 -76 80 -81 -82 84 -89 90 91 -92 93 95 -97 -98 100 -102 104 -105 -107 -111 -112 113 115 -116 -118 -119 -120 -121 122 -127 131 133 138 -139 140 -141 -145 -148 150 0
x 1 -9 11 -13 -15 -18 19 -20 -28 -29 -31 -32 -34 41 44 -45 46 -47 48 -51 -52 -53 54 57 -58 59 63 -64 -65 68 -69 73 -75 76 77 -79 80 -82 84 86 90 -91 -92 93 -94 -97 102 -103 104 -105 106 108 111 112 -114 116 117 118 -119 -122 -125 -126 127 -128 129 -132 134 -136 137 142 -143 -147 0
x -2 -3 5 -6 7 -15 19 21 22 -23 24 -25 -26 29 -30 -31 32 -33 -36 37 -38 40 42 46 47 -51 -54 -55 -56 -57 60 63 67 68 70 -72 -74 -76 79 82 84 87 88 -89 -90 91 -93 -95 97 -102 103 105 -107 108 109 -112 -114 117 -118 -119 -120 122 124 -126 128 -129 -130 131 -132 -133 -134 -136 139 140 -141 -142 -143 -145 147 0
x -2 -5 7 8 10 12 -17 -18 -21 22 -23 25 28 -33 34 -35 -37 38 39 41 43 45 46 48 49 -50 52 -55 57 -59 -61 62 -64 66 -67 -69 70 72 74 -75 76 -79 80 85 87 88 89 -90 -93 -95 -97 -100 101 103 105 109 -110 112 -114 -115 -125 -126 127 -130 -132 133 -137 138 -139 141 -144 -145 148 -150 0
x -5 6 7 -11 -13 -14 -16 18 -20 21 -23 -24 26 27 33 -34 37 -38 40 42 43 44 46 -49 -51 -53 -54 55 -57 59 -61 -62 -65 -70 71 72 73 74 75 78 81 84 -86 91 -92 94 -95 96 97 -98 100 -101 -103 -105 -109 111 112 114 -115 -117 118 -119 -120 122 123 -124 -127 128 129 131 136 -137 -138 139 140 -143 145 146 147 150 0
x -2 3 -9 -14 15 -20 22 25 -26 -29 30 -32 34 36 -37 39 -43 45 -47 -48 49 50 51 52 55 -56 57 60 -63 -64 -74 -75 -78 -79 -81 84 -85 86 -87 -88 89 90 92 -93 94 98 -99 -100 103 -104 -109 -111 115 -116 118 120 -123 -125 -127 -128 130 -132 135 136 138 139 -141 -143 -144 -149 150 0
x 1 -3 -4 -5 -7 8 -9 10 16 -17 19 20 -21 -23 -25 -26 31 -35 -36 38 -40 42 -44 46 48 -51 52 -53 54 59 -60 -61 -62 63 -64 -65 -69 -72 74 78 79 80 -81 -83 -87 -90 91 -92 93 -98 -101 104 105 106 112 113 -114 -115 116 117 -118 120 124 127 128 129 135 136 -137 -138 139 141 -143 144 146 148 -150 0
x 1 5 6 8 9 -13 14 17 -19 -20 21 -22 -24 -30 31 35 36 37 38 44 -45 -47 48 49 -51 53 -54 58 60 61 66 69 -70 72 -74 75 76 -77 -79 80 -81 -84 89 94 -96 -97 -99 -101 102 104 105 -106 107 -112 -113 -115 116 117 121 123 -126 -128 -130 -133 137 138 139 140 142 143 -145 -146 147 0
x -4 5 -9 -12 -14 19 -20 -21 -22 -25 -27 -28 -30 -31 -41 42 -43 -45 -47 -48 -50 52 54 58 -60 63 -64 65 66 67 69 74 75 -76 -78 -79 80 -81 -82 -87 90 91 -94 96 -97 -99 -100 -101 102 -104 -105 -107 -110 -112 -113 118 120 121 -132 -134 -136 137 -141 -145 149 0
x -1 2 5 -9 -13 -16 20 -21 -23 27 -28 -33 34 -35 -36 -38 -39 40 -47 -48 -49 50 51 52 -53 -54 55 56 57 58 -59 61 62 -64 66 67 -68 70 -71 -72 -73 -78 -81 82 -84 -87 89 90 94 96 -98 -99 100 102 103 105 106 -110 -112 -113 -116 -119 -128 129 -130 132 136 -139 -140 -143 -144 146 147 -150 0
x 2 -5 -6 8 -10 14 -15 16 -17 18 19 20 22 24 26 28 -30 -32 -34 35 38 -41 -43 44 -46 -47 50 -51 52 -53 57 59 -60 -61 62 -65 -66 -72 -76 78 83 84 85 87 -89 -90 95 -97 -99 -101 -102 106 -108 109 111 112 117 118 120 -125 126 -128 -129 -132 -134 135 -137 -138 139 -141 143 144 -145 -146 147 -148 -150 0
x -1 2 -3 -8 -9 12 -14 15 -17 -18 -20 21 -22 -24 -28 30 -33 -34 37 -38 40 -42 44 -45 -46 47 53 -54 -57 58 59 60 -61 62 -64 -67 -68 70 71 72 -76 77 79 -81 -83 84 -85 -86 -90 -91 -92 -93 94 95 -100 -101 -103 104 107 108 -109 -110 111 113 -118 119 -122 -124 -126 128 130 132 -133 134 -136 137 -138 139 140 142 -143 144 147 148 149 150 0
x 2 3 5 6 -7 -9 11 -14 -15 -20 23 -24 -25 -29 -30 31 -36 38 42 43 44 -45 47 48 50 52 53 -54 59 60 62 -63 68 70 -73 -76 81 -83 -85 -86 87 -90 92 -94 -95 -97 -98 -100 -101 -102 104 105 -106 -107 110 111 -112 -115 -121 -122 -123 128 129 130 -131 133 -134 -135 -136 -137 -138 -140 142 -145 -146 147 148 -150 0
x 2 3 -4 6 -7 11 -12 14 16 -21 22 25 27 30 -31 36 38 -39 -41 46 47 -48 51 55 57 -60 62 63 -64 -66 68 -70 -71 -73 74 75 -76 -78 -79 -83 86 -88 -89 90 -92 -93 96 97 99 101 -104 -105 106 -109 111 112 -114 115 116 -117 118 -119 123 -127 133 134 -137 -138 -140 147 149 -150 0
x -1 3 4 6 -7 9 -11 -15 -16 -18 21 23 -24 26 -28 -29 30 32 -37 -41 -43 -45 -47 -48 49 51 -52 53 -57 -59 61 63 -66 67 72 74 76 -79 80 -81 -85 -88 -89 91 -94 -96 98 99 -101 105 107 -109 111 -113 115 116 -118 121 122 -123 124 -128 -129 131 133 -137 138 140 -143 144 -146 149 150 0
x 1 -2 -3 5 8 10 11 12 13 -15 -16 17 18 19 -20 23 24 27 -31 36 -41 -43 -51 52 -53 54 56 -61 62 63 -65 66 -67 71 73 80 -81 -82 83 87 -88 -89 -91 -92 -93 -94 -95 -96 -100 -105 -110 114 -115 117 -121 123 -125 128 -132 135 -139 -144 -149 0
x -1 3 4 -5 -6 -7 -8 11 -12 -15 -17 19 20 -21 24 25 27 -28 -29 -30 31 -32 -33 34 -35 -36 -37 -38 39 44 -45 47 -48 49 51 54 55 -56 58 59 60 -61 62 63 65 -66 -69 70 73 80 82 -91 -92 -95 -98 -99 100 101 103 -104 105 106 107 -112 -113 115 116 -118 119 -121 -122 -127 129 -130 133 -135 136 138 139 142 145 147 -150 0
x 1 5 9 16 17 18 19 24 -29 -30 -31 -33 -37 -38 -39 -42 -43 44 -45 48 51 -54 56 -59 -61 62 64 65 -66 67 68 -70 -71 73 -74 -79 -80 81 -82 -83 84 89 -92 -93 94 95 -96 99 -100 103 105 -107 -115 -120 121 -122 124 126 129 -130 -133 -135 -138 -139 140 143 -145 0
x -1 2 3 4 5 -6 -7 -14 15 -17 -18 -19 21 22 -24 -26 -27 -28 29 -33 -35 -39 -42 -44 -45 46 -47 50 51 52 53 -54 58 61 -63 64 67 -68 69 -70 71 -72 -76 77 78 -80 83 -84 85 87 90 91 -98 -99 -100 -101 102 103 106 -107 -108 -109 -111 -113 -114 -116 117 121 122 123 125 126 -128 -130 132 133 -134 138 -139 -140 141 -143 -144 145 -146 -148 149 -150 0
x -1 -2 -5 -6 -8 9 -11 12 14 -17 -18 20 -21 22 23 -24 31 33 35 -36 37 -40 -41 -42 43 -46 48 -49 -50 -53 -54 55 -57 59 65 66 67 -68 71 -72 -73 74 -78 -80 -83 -84 -94 -97 -98 -101 103 105 106 109 115 -116 -118 -120 -121 -123 -124 -127 -129 130 131 -134 135 136 138 139 140 -141 142 -144 145 -147 -150 0
x 1 -2 -8 15 17 18 -19 -20 -22 -23 24 26 29 -33 34 38 -40 43 -45 -46 48 -50 -51 56 -58 -60 62 66 67 -70 -73 74 76 -78 80 82 -86 -87 88 -92 -97 -101 105 106 -108 -110 114 116 -117 118 119 121 122 123 126 127 -128 129 130 -132 134 136 -138 140 142 144 145 -146 149 -150 0
x 4 -6 -7 -10 11 -12 13 14 17 18 -19 -20 -21 22 -24 -25 -26 28 30 33 -36 38 -39 -40 -41 42 44 46 -48 49 -50 54 -58 -59 -60 62 -63 -65 -71 73 -74 76 78 -80 84 -85 -87 -95 -96 -97 -98 -100 -102 104 -106 -107 -111 -112 116 -117 -119 -120 -122 125 -126 131 134 -135 138 -139 -142 -143 144 -146 -147 150 0
